SPARKNaCl/why3-cvc5/sparknacl.adb_1377_47_overflow_check_1.smt2
;; produced by cvc5.drv ;;
(set-logic ALL)
(set-info :smt-lib-version 2.6)
;;; generated by SMT-LIB2 driver
;;; SMT-LIB2 driver: bit-vectors, common part
;;; SMT-LIB2: integer arithmetic
;; "pow2"
(declare-fun pow2 (Int) Int)

(declare-const two_power_size_minus_one Int)

;; "two_power_size_minus_one_val"
(assert (= two_power_size_minus_one (pow2 (- 8 1))))

;; "min"
(define-fun min ((x Int) (y Int)) Int
  (ite (<= x y) x y))

;; "max"
(define-fun max ((x Int) (y Int)) Int
  (ite (<= x y) y x))

;; "Min_r"
(assert (forall ((x Int) (y Int)) (=> (<= y x) (= (min x y) y))))

;; "Max_l"
(assert (forall ((x Int) (y Int)) (=> (<= y x) (= (max x y) x))))

;; "Min_comm"
(assert (forall ((x Int) (y Int)) (= (min x y) (min y x))))

;; "Max_comm"
(assert (forall ((x Int) (y Int)) (= (max x y) (max y x))))

;; "Min_assoc"
(assert
  (forall ((x Int) (y Int) (z Int)) (= (min (min x y) z) (min x (min y z)))))

;; "Max_assoc"
(assert
  (forall ((x Int) (y Int) (z Int)) (= (max (max x y) z) (max x (max y z)))))

(declare-sort integer 0)

;; "integer'int"
(declare-fun integerqtint (integer) Int)

;; "integer'axiom"
(assert
  (forall ((i integer))
    (and
      (<= (- 2147483648) (integerqtint i))
      (<= (integerqtint i) 2147483647))))

;; "in_range"
(define-fun in_range ((x Int)) Bool
  (and (<= (- 2147483648) x) (<= x 2147483647)))

(declare-sort character 0)

;; "in_range"
(define-fun in_range1 ((x Int)) Bool
  (and (<= 0 x) (<= x 255)))

;; "to_rep"
(declare-fun to_rep (character) Int)

;; "of_rep"
(declare-fun of_rep (Int) character)

;; "inversion_axiom"
(assert
  (forall ((x character))
    (! (= (of_rep (to_rep x)) x) :pattern ((to_rep x)) )))

;; "range_axiom"
(assert
  (forall ((x character)) (! (in_range1 (to_rep x)) :pattern ((to_rep x)) )))

;; "coerce_axiom"
(assert
  (forall ((x Int))
    (! (=> (in_range1 x) (= (to_rep (of_rep x)) x)) :pattern ((to_rep
                                                                (of_rep x))) )))

(declare-sort map1 0)

;; "has_bounds"
(declare-fun has_bounds (map1
  Int
  Int) Bool)

;; "in_range"
(define-fun in_range2 ((x Int)) Bool
  (and (<= 1 x) (<= x 2147483647)))

;; "to_rep"
(define-fun to_rep1 ((x integer)) Int
  (integerqtint x))

;; "of_rep"
(declare-fun of_rep1 (Int) integer)

;; "inversion_axiom"
(assert
  (forall ((x integer))
    (! (= (of_rep1 (to_rep1 x)) x) :pattern ((to_rep1 x)) )))

;; "range_axiom"
(assert
  (forall ((x integer)) (! (in_range (to_rep1 x)) :pattern ((to_rep1 x)) )))

;; "coerce_axiom"
(assert
  (forall ((x Int))
    (! (=> (in_range x) (= (to_rep1 (of_rep1 x)) x)) :pattern ((to_rep1
                                                                 (of_rep1 x))) )))

(declare-datatypes ((t 0))
  (((tqtmk (rec__first integer)(rec__last integer)))))

;; "dynamic_property"
(define-fun dynamic_property ((range_first Int) (range_last Int) (low Int) (high Int)) Bool
  (and
    (in_range low)
    (and
      (in_range high)
      (=> (<= low high) (and (in_range2 low) (in_range2 high))))))

(declare-datatypes ((us_t 0))
  (((us_tqtmk (elts map1)(rt t)))))

;; "first"
(define-fun first ((a us_t)) Int
  (to_rep1 (rec__first (rt a))))

;; "last"
(define-fun last ((a us_t)) Int
  (to_rep1 (rec__last (rt a))))

;; "length"
(define-fun length ((a us_t)) Int
  (ite (<= (first a) (last a)) (+ (- (last a) (first a)) 1) 0))

;; "well_formed"
(define-fun well_formed ((a us_t)) Bool
  (has_bounds
    (elts a)
    (to_rep1 (rec__first (rt a)))
    (to_rep1 (rec__last (rt a)))))

;; "dynamic_invariant"
(define-fun dynamic_invariant ((temp___expr_110 us_t) (temp___is_init_106 Bool) (temp___skip_constant_107 Bool) (temp___do_toplevel_108 Bool) (temp___do_typ_inv_109 Bool)) Bool
  (and
    (=>
      (not (= temp___skip_constant_107 true))
      (dynamic_property
        1
        2147483647
        (first temp___expr_110)
        (last temp___expr_110)))
    (well_formed temp___expr_110)))

(declare-sort tinteger_32B 0)

;; "tinteger_32B'int"
(declare-fun tinteger_32Bqtint (tinteger_32B) Int)

;; "tinteger_32B'axiom"
(assert
  (forall ((i tinteger_32B))
    (and
      (<= (- 2147483648) (tinteger_32Bqtint i))
      (<= (tinteger_32Bqtint i) 2147483647))))

;; "in_range"
(define-fun in_range3 ((x Int)) Bool
  (and (<= (- 2147483648) x) (<= x 2147483647)))

(declare-sort byte 0)

;; "to_rep"
(define-fun to_rep2 ((x tinteger_32B)) Int
  (tinteger_32Bqtint x))

;; "of_rep"
(declare-fun of_rep2 (Int) tinteger_32B)

;; "inversion_axiom"
(assert
  (forall ((x tinteger_32B))
    (! (= (of_rep2 (to_rep2 x)) x) :pattern ((to_rep2 x)) )))

;; "range_axiom"
(assert
  (forall ((x tinteger_32B))
    (! (in_range3 (to_rep2 x)) :pattern ((to_rep2 x)) )))

;; "coerce_axiom"
(assert
  (forall ((x Int))
    (! (=> (in_range3 x) (= (to_rep2 (of_rep2 x)) x)) :pattern ((to_rep2
                                                                  (of_rep2 x))) )))

;; "in_range"
(define-fun in_range4 ((x Int)) Bool
  (and (<= 0 x) (<= x 2147483647)))

;; "to_rep"
(declare-fun to_rep3 (byte) (_ BitVec 8))

;; "of_rep"
(declare-fun of_rep3 ((_ BitVec 8)) byte)

;; "inversion_axiom"
(assert
  (forall ((x byte)) (! (= (of_rep3 (to_rep3 x)) x) :pattern ((to_rep3 x)) )))

;; "range_axiom"
(assert true)

;; "coerce_axiom"
(assert
  (forall ((x (_ BitVec 8)))
    (! (= (to_rep3 (of_rep3 x)) x) :pattern ((to_rep3 (of_rep3 x))) )))

(declare-sort map2 0)

;; "has_bounds"
(declare-fun has_bounds1 (map2
  Int
  Int) Bool)

;; "get"
(declare-fun get (map2
  Int) byte)

(declare-datatypes ((t1 0))
  (((tqtmk1 (rec__first1 tinteger_32B)(rec__last1 tinteger_32B)))))

;; "mk"
(declare-fun mk (Int
  Int) t1)

;; "mk_def"
(assert
  (forall ((f Int) (l Int))
    (! (=>
         (in_range3 f)
         (=>
           (in_range3 l)
           (and
             (= (to_rep2 (rec__first1 (mk f l))) f)
             (= (to_rep2 (rec__last1 (mk f l))) l)))) :pattern ((mk f l)) )))

;; "dynamic_property"
(define-fun dynamic_property1 ((range_first Int) (range_last Int) (low Int) (high Int)) Bool
  (and
    (in_range3 low)
    (and
      (in_range3 high)
      (=> (<= low high) (and (in_range4 low) (in_range4 high))))))

(declare-datatypes ((us_t1 0))
  (((us_tqtmk1 (elts1 map2)(rt1 t1)))))

;; "of_array"
(define-fun of_array ((a map2) (f Int) (l Int)) us_t1
  (us_tqtmk1 a (mk f l)))

;; "first"
(define-fun first1 ((a us_t1)) Int
  (to_rep2 (rec__first1 (rt1 a))))

;; "last"
(define-fun last1 ((a us_t1)) Int
  (to_rep2 (rec__last1 (rt1 a))))

;; "well_formed"
(define-fun well_formed1 ((a us_t1)) Bool
  (has_bounds1
    (elts1 a)
    (to_rep2 (rec__first1 (rt1 a)))
    (to_rep2 (rec__last1 (rt1 a)))))

(declare-const s us_t)

(declare-const ret__first tinteger_32B)

(declare-const ret__last tinteger_32B)

;; "dynamic_invariant"
(define-fun dynamic_invariant1 ((temp___expr_1337 us_t1) (temp___is_init_1333 Bool) (temp___skip_constant_1334 Bool) (temp___do_toplevel_1335 Bool) (temp___do_typ_inv_1336 Bool)) Bool
  (and
    (=>
      (not (= temp___skip_constant_1334 true))
      (and
        (and
          (dynamic_property1
            0
            (- (length s) 1)
            (first1 temp___expr_1337)
            (last1 temp___expr_1337))
          (= (first1 temp___expr_1337) 0))
        (= (last1 temp___expr_1337) (- (length s) 1))))
    (well_formed1 temp___expr_1337)))

;; "default_initial_assumption"
(define-fun default_initial_assumption ((temp___expr_1339 us_t1) (temp___skip_top_level_1340 Bool)) Bool
  (and
    (= (first1 temp___expr_1339) 0)
    (= (last1 temp___expr_1339) (- (length s) 1))))

;; Goal "def'vc"
;; File "sparknacl.ads", line 128, characters 0-0
(assert
  (not
  (forall ((ret map2))
    (=>
      (dynamic_invariant s true false true true)
      (=>
        (<= 1 (length s))
        (=>
          (default_initial_assumption
            (of_array ret (to_rep2 ret__first) (to_rep2 ret__last))
            false)
          (=>
            (dynamic_invariant1
              (of_array ret (to_rep2 ret__first) (to_rep2 ret__last))
              false
              false
              true
              true)
            (forall ((o Int))
              (=>
                (= (to_rep2 ret__last) o)
                (forall ((o1 Int))
                  (=>
                    (= (to_rep2 ret__first) o1)
                    (forall ((temp___1454 Int))
                      (=>
                        (= (to_rep2 ret__last) temp___1454)
                        (forall ((i Int))
                          (=>
                            (= i 0)
                            (=>
                              (= (and (ite (<= 0 i) true false) (ite (<= i temp___1454)
                                                                  true
                                                                  false)) true)
                              (forall ((o2 Int))
                                (=>
                                  (= (to_rep2 ret__last) o2)
                                  (forall ((o3 Int))
                                    (=>
                                      (= (to_rep2 ret__first) o3)
                                      (forall ((ret1 map2) (i1 Int))
                                        (=>
                                          (= (and (ite (and
                                                         (dynamic_invariant1
                                                           (of_array
                                                             ret1
                                                             (to_rep2
                                                               ret__first)
                                                             (to_rep2
                                                               ret__last))
                                                           false
                                                           true
                                                           true
                                                           true)
                                                         (forall ((temp___1462 Int))
                                                           (=>
                                                             (and
                                                               (<= (to_rep2
                                                                    ret__first) temp___1462)
                                                               (<= temp___1462 
                                                               (to_rep2
                                                                 ret__last)))
                                                             (=>
                                                               (or
                                                                 (< temp___1454 temp___1462)
                                                                 (or
                                                                   (< temp___1462 0)
                                                                   (<= i1 temp___1462)))
                                                               (= (get
                                                                    ret1
                                                                    temp___1462) 
                                                               (get
                                                                 ret
                                                                 temp___1462))))))
                                                    true
                                                    false) (ite (and
                                                                  (<= 0 i1)
                                                                  (<= i1 
                                                                  (to_rep2
                                                                    ret__last)))
                                                             true
                                                             false)) true)
                                          (forall ((o4 Int))
                                            (=>
                                              (= (to_rep2 ret__last) o4)
                                              (forall ((o5 Int))
                                                (=>
                                                  (= (to_rep2 ret__first) o5)
                                                  (<= (- 2147483648) (+ 
                                                  (first
                                                    s) i1))))))))))))))))))))))))))))

(check-sat)
